20      3       
10      10      10      
0       0       0       0       3       2       3       4       
2       2       3       6       2       5       6       
4       1       5       0       3       7       8       9       
3       4       2       3       2       10      11      
2       2       1       5       1       13      
3       4       3       1       1       12      
1       3       2       7       1       12      
2       6       0       3       2       14      18      
4       5       3       6       2       15      16      
3       3       8       3       1       20      
1       2       4       0       3       13      15      16      
1       1       2       1       1       17      
5       6       1       5       1       17      
2       7       5       2       1       20      
3       4       4       3       1       20      
3       0       5       7       1       19      
4       1       3       0       1       20      
3       4       2       2       1       20      
2       2       1       2       1       20      
0       0       0       0       0       
